(declare-const income Real)
(declare-const p3_51 Real)
(declare-const fee_bl Real)
(declare-const p2_46 Real)
(declare-const p5_01 Real)
(declare-const p5_20 Real)
(assert (= p2_46 (* 0.0246 (ite (> income 4030) 4030 income))))
(assert (= p3_51 (ite (> income 4030) (* 0.0351 (- (ite (> income 24120) 24120 income) 4030)) 0)))
(assert (= p5_01 (ite (> income 24120) (* 0.0501 (- (ite (> income 38870) 38870 income) 24120)) 0)))
(assert (= p5_20 (ite (> income 38870) (* 0.0520 (- income 38870)) 0)))
(assert (= fee_bl (+ (+ (+ p2_46 p3_51) p5_01) p5_20)))